(set-logic QF_LIA)
(declare-fun x0 () Int)
(declare-fun x1 () Int)
(declare-fun x2 () Int)
(declare-fun x3 () Int)
(declare-fun x4 () Int)
(declare-fun x5 () Int)
(declare-fun x6 () Int)
(declare-fun x7 () Int)
(declare-fun x8 () Int)
(declare-fun x9 () Int)
(declare-fun A0 () Bool)
(declare-fun A1 () Bool)
(declare-fun A2 () Bool)
(declare-fun A3 () Bool)
(declare-fun A4 () Bool)
(declare-fun A5 () Bool)
(declare-fun A6 () Bool)
(declare-fun A7 () Bool)
(declare-fun A8 () Bool)
(declare-fun A9 () Bool)
(assert (let ((.def_0 (* 1 x8))) (let ((.def_1 (* 1 x6))) (let ((.def_2 (+ .def_1 .def_0))) (let ((.def_3 (< .def_2 (- 1)))) (let ((.def_4 (not .def_3))) (let ((.def_5 (or .def_4 A8))) (let ((.def_6 (not A1))) (let ((.def_7 (and A7 .def_6))) (let ((.def_8 (not .def_7))) (let ((.def_9 (and .def_8 .def_5))) (let ((.def_10 (not .def_9))) (let ((.def_11 (not A6))) (let ((.def_12 (< .def_0 (- 1)))) (let ((.def_13 (and .def_12 .def_11))) (let ((.def_14 (* (- 1) x2))) (let ((.def_15 (< .def_14 1))) (let ((.def_16 (* 1 x3))) (let ((.def_17 (* (- 1) x4))) (let ((.def_18 (+ .def_17 .def_16))) (let ((.def_19 (< .def_18 (- 1)))) (let ((.def_20 (or .def_19 .def_15))) (let ((.def_21 (not .def_20))) (let ((.def_22 (or .def_21 .def_13))) (let ((.def_23 (not .def_22))) (let ((.def_24 (or .def_23 .def_10))) (let ((.def_25 (not .def_24))) (let ((.def_26 (not A8))) (let ((.def_27 (< .def_1 (- 1)))) (let ((.def_28 (or .def_27 .def_26))) (let ((.def_29 (not .def_28))) (let ((.def_30 (and A3 A0))) (let ((.def_31 (not .def_30))) (let ((.def_32 (or .def_31 .def_29))) (let ((.def_33 (not .def_32))) (let ((.def_34 (* 1 x4))) (let ((.def_35 (* (- 1) x7))) (let ((.def_36 (+ .def_35 .def_34))) (let ((.def_37 (< .def_36 1))) (let ((.def_38 (not .def_37))) (let ((.def_39 (and .def_38 A2))) (let ((.def_40 (not A0))) (let ((.def_41 (= A9 .def_40))) (let ((.def_42 (or .def_41 .def_39))) (let ((.def_43 (and .def_42 .def_33))) (let ((.def_44 (and .def_43 .def_25))) (let ((.def_45 (* 1 x2))) (let ((.def_46 (< .def_45 (- 1)))) (let ((.def_47 (not .def_46))) (let ((.def_48 (not A9))) (let ((.def_49 (= .def_48 .def_47))) (let ((.def_50 (not .def_49))) (let ((.def_51 (< .def_35 1))) (let ((.def_52 (not .def_27))) (let ((.def_53 (or .def_52 .def_51))) (let ((.def_54 (not .def_53))) (let ((.def_55 (or .def_54 .def_50))) (let ((.def_56 (not .def_55))) (let ((.def_57 (* (- 1) x0))) (let ((.def_58 (< .def_57 1))) (let ((.def_59 (not .def_58))) (let ((.def_60 (* 1 x9))) (let ((.def_61 (< .def_60 (- 1)))) (let ((.def_62 (not .def_61))) (let ((.def_63 (or .def_62 .def_59))) (let ((.def_64 (* (- 1) x9))) (let ((.def_65 (< .def_64 (- 1)))) (let ((.def_66 (not .def_65))) (let ((.def_67 (or A9 .def_66))) (let ((.def_68 (not .def_67))) (let ((.def_69 (or .def_68 .def_63))) (let ((.def_70 (and .def_69 .def_56))) (let ((.def_71 (not .def_70))) (let ((.def_72 (* (- 1) x1))) (let ((.def_73 (< .def_72 1))) (let ((.def_74 (and .def_40 .def_73))) (let ((.def_75 (not .def_74))) (let ((.def_76 (* 1 x5))) (let ((.def_77 (< .def_76 (- 1)))) (let ((.def_78 (or A7 .def_77))) (let ((.def_79 (and .def_78 .def_75))) (let ((.def_80 (+ .def_60 .def_35))) (let ((.def_81 (< .def_80 1))) (let ((.def_82 (not .def_81))) (let ((.def_83 (* 1 x7))) (let ((.def_84 (< .def_83 1))) (let ((.def_85 (= .def_84 .def_82))) (let ((.def_86 (not A3))) (let ((.def_87 (* 1 x0))) (let ((.def_88 (< .def_87 (- 1)))) (let ((.def_89 (not .def_88))) (let ((.def_90 (and .def_89 .def_86))) (let ((.def_91 (not .def_90))) (let ((.def_92 (= .def_91 .def_85))) (let ((.def_93 (or .def_92 .def_79))) (let ((.def_94 (or .def_93 .def_71))) (let ((.def_95 (or .def_94 .def_44))) (let ((.def_96 (not .def_95))) (let ((.def_97 (and A4 A8))) (let ((.def_98 (and A7 A0))) (let ((.def_99 (and .def_98 .def_97))) (let ((.def_100 (< .def_34 (- 1)))) (let ((.def_101 (or .def_100 A3))) (let ((.def_102 (+ .def_83 .def_87))) (let ((.def_103 (< .def_102 (- 1)))) (let ((.def_104 (and .def_103 A1))) (let ((.def_105 (or .def_104 .def_101))) (let ((.def_106 (not .def_105))) (let ((.def_107 (and .def_106 .def_99))) (let ((.def_108 (and A3 A3))) (let ((.def_109 (not .def_108))) (let ((.def_110 (* (- 1) x8))) (let ((.def_111 (+ .def_110 .def_1))) (let ((.def_112 (< .def_111 1))) (let ((.def_113 (not .def_112))) (let ((.def_114 (and .def_113 A4))) (let ((.def_115 (or .def_114 .def_109))) (let ((.def_116 (< .def_60 1))) (let ((.def_117 (not .def_116))) (let ((.def_118 (and .def_6 .def_117))) (let ((.def_119 (not .def_118))) (let ((.def_120 (or .def_86 A0))) (let ((.def_121 (not .def_120))) (let ((.def_122 (or .def_121 .def_119))) (let ((.def_123 (not .def_122))) (let ((.def_124 (or .def_123 .def_115))) (let ((.def_125 (or .def_124 .def_107))) (let ((.def_126 (not A5))) (let ((.def_127 (* (- 1) x3))) (let ((.def_128 (+ .def_127 .def_76))) (let ((.def_129 (< .def_128 1))) (let ((.def_130 (or .def_129 .def_126))) (let ((.def_131 (< .def_14 (- 1)))) (let ((.def_132 (and A5 .def_131))) (let ((.def_133 (and .def_132 .def_130))) (let ((.def_134 (* (- 1) x6))) (let ((.def_135 (+ .def_134 .def_127))) (let ((.def_136 (< .def_135 (- 1)))) (let ((.def_137 (not .def_136))) (let ((.def_138 (and A8 .def_137))) (let ((.def_139 (and A2 .def_73))) (let ((.def_140 (not .def_139))) (let ((.def_141 (or .def_140 .def_138))) (let ((.def_142 (= .def_141 .def_133))) (let ((.def_143 (* (- 1) x5))) (let ((.def_144 (< .def_143 (- 1)))) (let ((.def_145 (not .def_144))) (let ((.def_146 (or A2 .def_145))) (let ((.def_147 (not .def_146))) (let ((.def_148 (+ .def_72 .def_110))) (let ((.def_149 (< .def_148 1))) (let ((.def_150 (or .def_149 .def_86))) (let ((.def_151 (or .def_150 .def_147))) (let ((.def_152 (not .def_84))) (let ((.def_153 (not A7))) (let ((.def_154 (and .def_153 .def_152))) (let ((.def_155 (not .def_154))) (let ((.def_156 (+ .def_17 .def_110))) (let ((.def_157 (< .def_156 (- 1)))) (let ((.def_158 (not .def_157))) (let ((.def_159 (and .def_158 A7))) (let ((.def_160 (or .def_159 .def_155))) (let ((.def_161 (not .def_160))) (let ((.def_162 (and .def_161 .def_151))) (let ((.def_163 (not .def_162))) (let ((.def_164 (= .def_163 .def_142))) (let ((.def_165 (not .def_164))) (let ((.def_166 (and .def_165 .def_125))) (let ((.def_167 (not .def_166))) (let ((.def_168 (and .def_167 .def_96))) (let ((.def_169 (not .def_168))) (let ((.def_170 (+ .def_110 .def_76))) (let ((.def_171 (< .def_170 (- 1)))) (let ((.def_172 (not .def_171))) (let ((.def_173 (< .def_127 1))) (let ((.def_174 (= .def_173 .def_172))) (let ((.def_175 (not .def_174))) (let ((.def_176 (+ .def_110 .def_64))) (let ((.def_177 (< .def_176 1))) (let ((.def_178 (* 1 x1))) (let ((.def_179 (+ .def_178 .def_35))) (let ((.def_180 (< .def_179 (- 1)))) (let ((.def_181 (or .def_180 .def_177))) (let ((.def_182 (not .def_181))) (let ((.def_183 (and .def_182 .def_175))) (let ((.def_184 (+ .def_143 .def_1))) (let ((.def_185 (< .def_184 (- 1)))) (let ((.def_186 (and .def_61 .def_185))) (let ((.def_187 (and A2 .def_48))) (let ((.def_188 (and .def_187 .def_186))) (let ((.def_189 (not .def_188))) (let ((.def_190 (and .def_189 .def_183))) (let ((.def_191 (not A4))) (let ((.def_192 (and .def_191 .def_11))) (let ((.def_193 (< .def_35 (- 1)))) (let ((.def_194 (< .def_17 1))) (let ((.def_195 (not .def_194))) (let ((.def_196 (or .def_195 .def_193))) (let ((.def_197 (not .def_196))) (let ((.def_198 (and .def_197 .def_192))) (let ((.def_199 (+ .def_45 .def_57))) (let ((.def_200 (< .def_199 1))) (let ((.def_201 (not .def_200))) (let ((.def_202 (and .def_201 .def_6))) (let ((.def_203 (+ .def_17 .def_83))) (let ((.def_204 (< .def_203 1))) (let ((.def_205 (not .def_204))) (let ((.def_206 (and .def_66 .def_205))) (let ((.def_207 (and .def_206 .def_202))) (let ((.def_208 (or .def_207 .def_198))) (let ((.def_209 (not .def_208))) (let ((.def_210 (= .def_209 .def_190))) (let ((.def_211 (not .def_210))) (let ((.def_212 (not A2))) (let ((.def_213 (or .def_126 .def_212))) (let ((.def_214 (+ .def_16 .def_1))) (let ((.def_215 (< .def_214 (- 1)))) (let ((.def_216 (or .def_215 A0))) (let ((.def_217 (and .def_216 .def_213))) (let ((.def_218 (+ .def_76 .def_64))) (let ((.def_219 (< .def_218 1))) (let ((.def_220 (or .def_6 .def_219))) (let ((.def_221 (+ .def_34 .def_87))) (let ((.def_222 (< .def_221 (- 1)))) (let ((.def_223 (+ .def_178 .def_76))) (let ((.def_224 (< .def_223 (- 1)))) (let ((.def_225 (and .def_224 .def_222))) (let ((.def_226 (or .def_225 .def_220))) (let ((.def_227 (and .def_226 .def_217))) (let ((.def_228 (not .def_227))) (let ((.def_229 (< .def_72 (- 1)))) (let ((.def_230 (= .def_229 A1))) (let ((.def_231 (< .def_110 1))) (let ((.def_232 (or .def_48 .def_231))) (let ((.def_233 (not .def_232))) (let ((.def_234 (and .def_233 .def_230))) (let ((.def_235 (not .def_234))) (let ((.def_236 (< .def_64 1))) (let ((.def_237 (not .def_236))) (let ((.def_238 (and .def_237 .def_212))) (let ((.def_239 (and A0 A2))) (let ((.def_240 (not .def_239))) (let ((.def_241 (or .def_240 .def_238))) (let ((.def_242 (not .def_241))) (let ((.def_243 (and .def_242 .def_235))) (let ((.def_244 (not .def_243))) (let ((.def_245 (or .def_244 .def_228))) (let ((.def_246 (not .def_245))) (let ((.def_247 (and .def_246 .def_211))) (let ((.def_248 (not .def_247))) (let ((.def_249 (or .def_153 A6))) (let ((.def_250 (+ .def_178 .def_17))) (let ((.def_251 (< .def_250 (- 1)))) (let ((.def_252 (not .def_251))) (let ((.def_253 (or .def_48 .def_252))) (let ((.def_254 (not .def_253))) (let ((.def_255 (or .def_254 .def_249))) (let ((.def_256 (not .def_255))) (let ((.def_257 (< .def_76 1))) (let ((.def_258 (not .def_257))) (let ((.def_259 (= .def_73 .def_258))) (let ((.def_260 (or .def_62 A6))) (let ((.def_261 (not .def_260))) (let ((.def_262 (or .def_261 .def_259))) (let ((.def_263 (not .def_262))) (let ((.def_264 (or .def_263 .def_256))) (let ((.def_265 (+ .def_57 .def_35))) (let ((.def_266 (< .def_265 1))) (let ((.def_267 (not .def_266))) (let ((.def_268 (and .def_88 .def_267))) (let ((.def_269 (not .def_268))) (let ((.def_270 (+ .def_110 .def_45))) (let ((.def_271 (< .def_270 1))) (let ((.def_272 (+ .def_143 .def_57))) (let ((.def_273 (< .def_272 (- 1)))) (let ((.def_274 (and .def_273 .def_271))) (let ((.def_275 (or .def_274 .def_269))) (let ((.def_276 (not .def_275))) (let ((.def_277 (+ .def_87 .def_127))) (let ((.def_278 (< .def_277 1))) (let ((.def_279 (not .def_278))) (let ((.def_280 (and .def_145 .def_279))) (let ((.def_281 (< .def_0 1))) (let ((.def_282 (and .def_281 .def_11))) (let ((.def_283 (or .def_282 .def_280))) (let ((.def_284 (or .def_283 .def_276))) (let ((.def_285 (not .def_284))) (let ((.def_286 (and .def_285 .def_264))) (let ((.def_287 (not .def_286))) (let ((.def_288 (and .def_26 .def_48))) (let ((.def_289 (not .def_288))) (let ((.def_290 (+ .def_83 .def_17))) (let ((.def_291 (< .def_290 1))) (let ((.def_292 (= .def_291 A3))) (let ((.def_293 (not .def_292))) (let ((.def_294 (and .def_293 .def_289))) (let ((.def_295 (not .def_294))) (let ((.def_296 (+ .def_83 .def_0))) (let ((.def_297 (< .def_296 1))) (let ((.def_298 (and A8 .def_297))) (let ((.def_299 (and A9 .def_191))) (let ((.def_300 (not .def_299))) (let ((.def_301 (and .def_300 .def_298))) (let ((.def_302 (and .def_301 .def_295))) (let ((.def_303 (not .def_302))) (let ((.def_304 (+ .def_83 .def_60))) (let ((.def_305 (< .def_304 (- 1)))) (let ((.def_306 (and .def_305 A0))) (let ((.def_307 (not .def_306))) (let ((.def_308 (or A0 .def_26))) (let ((.def_309 (not .def_308))) (let ((.def_310 (or .def_309 .def_307))) (let ((.def_311 (not .def_310))) (let ((.def_312 (+ .def_76 .def_34))) (let ((.def_313 (< .def_312 (- 1)))) (let ((.def_314 (not .def_313))) (let ((.def_315 (or .def_236 .def_314))) (let ((.def_316 (not .def_315))) (let ((.def_317 (< .def_45 1))) (let ((.def_318 (or .def_26 .def_317))) (let ((.def_319 (or .def_318 .def_316))) (let ((.def_320 (not .def_319))) (let ((.def_321 (and .def_320 .def_311))) (let ((.def_322 (not .def_321))) (let ((.def_323 (and .def_322 .def_303))) (let ((.def_324 (not .def_323))) (let ((.def_325 (or .def_324 .def_287))) (let ((.def_326 (= .def_325 .def_248))) (let ((.def_327 (or .def_326 .def_169))) (let ((.def_328 (not .def_327))) (let ((.def_329 (< .def_143 1))) (let ((.def_330 (not .def_329))) (let ((.def_331 (+ .def_134 .def_57))) (let ((.def_332 (< .def_331 1))) (let ((.def_333 (not .def_332))) (let ((.def_334 (and .def_333 .def_330))) (let ((.def_335 (and .def_299 .def_334))) (let ((.def_336 (< .def_214 1))) (let ((.def_337 (< .def_178 1))) (let ((.def_338 (not .def_337))) (let ((.def_339 (and .def_338 .def_336))) (let ((.def_340 (+ .def_14 .def_127))) (let ((.def_341 (< .def_340 1))) (let ((.def_342 (or A4 .def_341))) (let ((.def_343 (not .def_342))) (let ((.def_344 (and .def_343 .def_339))) (let ((.def_345 (= .def_344 .def_335))) (let ((.def_346 (not .def_345))) (let ((.def_347 (and .def_62 .def_48))) (let ((.def_348 (not .def_347))) (let ((.def_349 (+ .def_0 .def_87))) (let ((.def_350 (< .def_349 1))) (let ((.def_351 (and .def_126 .def_350))) (let ((.def_352 (not .def_351))) (let ((.def_353 (or .def_352 .def_348))) (let ((.def_354 (< .def_1 1))) (let ((.def_355 (or .def_354 A2))) (let ((.def_356 (and .def_11 .def_48))) (let ((.def_357 (not .def_356))) (let ((.def_358 (or .def_357 .def_355))) (let ((.def_359 (not .def_358))) (let ((.def_360 (or .def_359 .def_353))) (let ((.def_361 (not .def_360))) (let ((.def_362 (and .def_361 .def_346))) (let ((.def_363 (not .def_362))) (let ((.def_364 (< .def_18 1))) (let ((.def_365 (not .def_364))) (let ((.def_366 (or A6 .def_365))) (let ((.def_367 (+ .def_134 .def_110))) (let ((.def_368 (< .def_367 (- 1)))) (let ((.def_369 (and .def_368 .def_6))) (let ((.def_370 (= .def_369 .def_366))) (let ((.def_371 (+ .def_83 .def_57))) (let ((.def_372 (< .def_371 1))) (let ((.def_373 (not .def_372))) (let ((.def_374 (and A6 .def_373))) (let ((.def_375 (not .def_374))) (let ((.def_376 (and .def_48 A1))) (let ((.def_377 (or .def_376 .def_375))) (let ((.def_378 (not .def_377))) (let ((.def_379 (and .def_378 .def_370))) (let ((.def_380 (and A3 .def_191))) (let ((.def_381 (not .def_380))) (let ((.def_382 (or .def_257 .def_12))) (let ((.def_383 (or .def_382 .def_381))) (let ((.def_384 (+ .def_35 .def_16))) (let ((.def_385 (< .def_384 (- 1)))) (let ((.def_386 (not .def_385))) (let ((.def_387 (= A0 .def_386))) (let ((.def_388 (not .def_387))) (let ((.def_389 (+ .def_134 .def_178))) (let ((.def_390 (< .def_389 (- 1)))) (let ((.def_391 (or .def_390 A7))) (let ((.def_392 (and .def_391 .def_388))) (let ((.def_393 (not .def_392))) (let ((.def_394 (or .def_393 .def_383))) (let ((.def_395 (not .def_394))) (let ((.def_396 (and .def_395 .def_379))) (let ((.def_397 (or .def_396 .def_363))) (let ((.def_398 (not .def_397))) (let ((.def_399 (and A6 .def_153))) (let ((.def_400 (not .def_399))) (let ((.def_401 (+ .def_57 .def_76))) (let ((.def_402 (< .def_401 (- 1)))) (let ((.def_403 (= .def_402 A7))) (let ((.def_404 (or .def_403 .def_400))) (let ((.def_405 (not .def_404))) (let ((.def_406 (+ .def_143 .def_110))) (let ((.def_407 (< .def_406 1))) (let ((.def_408 (= .def_407 .def_173))) (let ((.def_409 (and .def_257 .def_6))) (let ((.def_410 (and .def_409 .def_408))) (let ((.def_411 (not .def_410))) (let ((.def_412 (and .def_411 .def_405))) (let ((.def_413 (not .def_412))) (let ((.def_414 (+ .def_34 .def_60))) (let ((.def_415 (< .def_414 (- 1)))) (let ((.def_416 (or A6 .def_415))) (let ((.def_417 (not .def_416))) (let ((.def_418 (or .def_417 .def_240))) (let ((.def_419 (not .def_418))) (let ((.def_420 (and A7 .def_86))) (let ((.def_421 (not .def_420))) (let ((.def_422 (and A5 .def_86))) (let ((.def_423 (or .def_422 .def_421))) (let ((.def_424 (or .def_423 .def_419))) (let ((.def_425 (or .def_424 .def_413))) (let ((.def_426 (< .def_16 (- 1)))) (let ((.def_427 (not .def_426))) (let ((.def_428 (= .def_427 .def_48))) (let ((.def_429 (not .def_428))) (let ((.def_430 (+ .def_14 .def_72))) (let ((.def_431 (< .def_430 (- 1)))) (let ((.def_432 (+ .def_57 .def_34))) (let ((.def_433 (< .def_432 1))) (let ((.def_434 (not .def_433))) (let ((.def_435 (and .def_434 .def_431))) (let ((.def_436 (not .def_435))) (let ((.def_437 (and .def_436 .def_429))) (let ((.def_438 (not .def_437))) (let ((.def_439 (or A7 A7))) (let ((.def_440 (or A9 A0))) (let ((.def_441 (not .def_440))) (let ((.def_442 (or .def_441 .def_439))) (let ((.def_443 (not .def_442))) (let ((.def_444 (and .def_443 .def_438))) (let ((.def_445 (not .def_444))) (let ((.def_446 (+ .def_17 .def_14))) (let ((.def_447 (< .def_446 (- 1)))) (let ((.def_448 (not .def_447))) (let ((.def_449 (or .def_448 .def_219))) (let ((.def_450 (< .def_134 (- 1)))) (let ((.def_451 (< .def_2 1))) (let ((.def_452 (or .def_451 .def_450))) (let ((.def_453 (= .def_452 .def_449))) (let ((.def_454 (or .def_65 .def_126))) (let ((.def_455 (and A0 .def_6))) (let ((.def_456 (or .def_455 .def_454))) (let ((.def_457 (not .def_456))) (let ((.def_458 (or .def_457 .def_453))) (let ((.def_459 (not .def_458))) (let ((.def_460 (and .def_459 .def_445))) (let ((.def_461 (or .def_460 .def_425))) (let ((.def_462 (= .def_461 .def_398))) (let ((.def_463 (not .def_462))) (let ((.def_464 (+ .def_17 .def_57))) (let ((.def_465 (< .def_464 (- 1)))) (let ((.def_466 (not .def_465))) (let ((.def_467 (or .def_466 A0))) (let ((.def_468 (not .def_467))) (let ((.def_469 (or .def_11 A4))) (let ((.def_470 (and .def_469 .def_468))) (let ((.def_471 (or .def_40 .def_27))) (let ((.def_472 (not .def_471))) (let ((.def_473 (+ .def_87 .def_72))) (let ((.def_474 (< .def_473 (- 1)))) (let ((.def_475 (and .def_6 .def_474))) (let ((.def_476 (not .def_475))) (let ((.def_477 (or .def_476 .def_472))) (let ((.def_478 (not .def_477))) (let ((.def_479 (or .def_478 .def_470))) (let ((.def_480 (= A3 A1))) (let ((.def_481 (+ .def_110 .def_134))) (let ((.def_482 (< .def_481 1))) (let ((.def_483 (or .def_482 .def_26))) (let ((.def_484 (not .def_483))) (let ((.def_485 (= .def_484 .def_480))) (let ((.def_486 (< .def_178 (- 1)))) (let ((.def_487 (or .def_486 A4))) (let ((.def_488 (not .def_450))) (let ((.def_489 (or .def_488 A1))) (let ((.def_490 (or .def_489 .def_487))) (let ((.def_491 (not .def_490))) (let ((.def_492 (or .def_491 .def_485))) (let ((.def_493 (or .def_492 .def_479))) (let ((.def_494 (or .def_40 .def_47))) (let ((.def_495 (not .def_494))) (let ((.def_496 (or .def_427 .def_212))) (let ((.def_497 (or .def_496 .def_495))) (let ((.def_498 (and .def_427 .def_48))) (let ((.def_499 (not .def_498))) (let ((.def_500 (+ .def_134 .def_76))) (let ((.def_501 (< .def_500 (- 1)))) (let ((.def_502 (or .def_48 .def_501))) (let ((.def_503 (not .def_502))) (let ((.def_504 (and .def_503 .def_499))) (let ((.def_505 (not .def_504))) (let ((.def_506 (and .def_505 .def_497))) (let ((.def_507 (not .def_506))) (let ((.def_508 (+ .def_110 .def_16))) (let ((.def_509 (< .def_508 1))) (let ((.def_510 (not .def_509))) (let ((.def_511 (= .def_510 A2))) (let ((.def_512 (not .def_511))) (let ((.def_513 (and .def_6 .def_40))) (let ((.def_514 (or .def_513 .def_512))) (let ((.def_515 (not .def_514))) (let ((.def_516 (or A3 A4))) (let ((.def_517 (not .def_516))) (let ((.def_518 (or .def_11 .def_48))) (let ((.def_519 (= .def_518 .def_517))) (let ((.def_520 (not .def_519))) (let ((.def_521 (or .def_520 .def_515))) (let ((.def_522 (or .def_521 .def_507))) (let ((.def_523 (not .def_522))) (let ((.def_524 (and .def_523 .def_493))) (let ((.def_525 (not .def_524))) (let ((.def_526 (+ .def_83 .def_16))) (let ((.def_527 (< .def_526 (- 1)))) (let ((.def_528 (and .def_191 .def_527))) (let ((.def_529 (or .def_231 A3))) (let ((.def_530 (and .def_529 .def_528))) (let ((.def_531 (not .def_229))) (let ((.def_532 (= .def_531 .def_86))) (let ((.def_533 (not .def_532))) (let ((.def_534 (+ .def_14 .def_143))) (let ((.def_535 (< .def_534 1))) (let ((.def_536 (not .def_535))) (let ((.def_537 (or .def_536 A2))) (let ((.def_538 (and .def_537 .def_533))) (let ((.def_539 (and .def_538 .def_530))) (let ((.def_540 (not .def_539))) (let ((.def_541 (+ .def_127 .def_45))) (let ((.def_542 (< .def_541 (- 1)))) (let ((.def_543 (+ .def_64 .def_127))) (let ((.def_544 (< .def_543 (- 1)))) (let ((.def_545 (not .def_544))) (let ((.def_546 (or .def_545 .def_542))) (let ((.def_547 (not .def_546))) (let ((.def_548 (or .def_191 .def_6))) (let ((.def_549 (or .def_548 .def_547))) (let ((.def_550 (not .def_549))) (let ((.def_551 (< .def_127 (- 1)))) (let ((.def_552 (or .def_551 .def_6))) (let ((.def_553 (or A6 .def_40))) (let ((.def_554 (and .def_553 .def_552))) (let ((.def_555 (not .def_554))) (let ((.def_556 (= .def_555 .def_550))) (let ((.def_557 (or .def_556 .def_540))) (let ((.def_558 (+ .def_64 .def_17))) (let ((.def_559 (< .def_558 1))) (let ((.def_560 (+ .def_134 .def_0))) (let ((.def_561 (< .def_560 (- 1)))) (let ((.def_562 (and .def_561 .def_559))) (let ((.def_563 (not .def_562))) (let ((.def_564 (and .def_116 A6))) (let ((.def_565 (not .def_564))) (let ((.def_566 (and .def_565 .def_563))) (let ((.def_567 (not .def_566))) (let ((.def_568 (or .def_231 .def_40))) (let ((.def_569 (not .def_568))) (let ((.def_570 (+ .def_72 .def_134))) (let ((.def_571 (< .def_570 (- 1)))) (let ((.def_572 (not .def_571))) (let ((.def_573 (or .def_572 .def_40))) (let ((.def_574 (and .def_573 .def_569))) (let ((.def_575 (and .def_574 .def_567))) (let ((.def_576 (+ .def_110 .def_83))) (let ((.def_577 (< .def_576 1))) (let ((.def_578 (not .def_577))) (let ((.def_579 (or .def_51 .def_578))) (let ((.def_580 (< .def_500 1))) (let ((.def_581 (+ .def_60 .def_45))) (let ((.def_582 (< .def_581 (- 1)))) (let ((.def_583 (and .def_582 .def_580))) (let ((.def_584 (and .def_583 .def_579))) (let ((.def_585 (not .def_584))) (let ((.def_586 (+ .def_1 .def_16))) (let ((.def_587 (< .def_586 1))) (let ((.def_588 (or .def_587 .def_52))) (let ((.def_589 (+ .def_16 .def_35))) (let ((.def_590 (< .def_589 (- 1)))) (let ((.def_591 (not .def_590))) (let ((.def_592 (+ .def_134 .def_16))) (let ((.def_593 (< .def_592 1))) (let ((.def_594 (or .def_593 .def_591))) (let ((.def_595 (and .def_594 .def_588))) (let ((.def_596 (not .def_595))) (let ((.def_597 (and .def_596 .def_585))) (let ((.def_598 (not .def_597))) (let ((.def_599 (and .def_598 .def_575))) (let ((.def_600 (not .def_599))) (let ((.def_601 (or .def_600 .def_557))) (let ((.def_602 (not .def_601))) (let ((.def_603 (and .def_602 .def_525))) (let ((.def_604 (not .def_603))) (let ((.def_605 (and .def_604 .def_463))) (let ((.def_606 (not .def_605))) (let ((.def_607 (= .def_606 .def_328))) (let ((.def_608 (not .def_607))) (let ((.def_609 (<= x9 1))) (let ((.def_610 (<= 0 x9))) (let ((.def_611 (<= x8 1))) (let ((.def_612 (<= 0 x8))) (let ((.def_613 (<= x7 1))) (let ((.def_614 (<= 0 x7))) (let ((.def_615 (<= x6 1))) (let ((.def_616 (<= 0 x6))) (let ((.def_617 (<= x5 1))) (let ((.def_618 (<= 0 x5))) (let ((.def_619 (<= x4 1))) (let ((.def_620 (<= 0 x4))) (let ((.def_621 (<= x3 1))) (let ((.def_622 (<= 0 x3))) (let ((.def_623 (<= x2 1))) (let ((.def_624 (<= 0 x2))) (let ((.def_625 (<= x1 1))) (let ((.def_626 (<= 0 x1))) (let ((.def_627 (<= x0 1))) (let ((.def_628 (<= 0 x0))) (let ((.def_629 (and .def_628 .def_627 .def_626 .def_625 .def_624 .def_623 .def_622 .def_621 .def_620 .def_619 .def_618 .def_617 .def_616 .def_615 .def_614 .def_613 .def_612 .def_611 .def_610 .def_609 .def_608))) .def_629)))))))))))))))))))))))))))))))))))))))))))))))))))))))))))))))))))))))))))))))))))))))))))))))))))))))))))))))))))))))))))))))))))))))))))))))))))))))))))))))))))))))))))))))))))))))))))))))))))))))))))))))))))))))))))))))))))))))))))))))))))))))))))))))))))))))))))))))))))))))))))))))))))))))))))))))))))))))))))))))))))))))))))))))))))))))))))))))))))))))))))))))))))))))))))))))))))))))))))))))))))))))))))))))))))))))))))))))))))))))))))))))))))))))))))))))))))))))))))))))))))))))))))))))))))))))))))))))))))))))))))))))))))))))))))))))))))))))))))))))))))))))))))))))))))))))))))))))))))))))))))))))))))))))))))))))))))))))
(check-sat)
